50 8
386 98
901 850
248 546
264 712
322 894
654 365
723 156
429 528
671 354
510 369
495 596
759 588
422 483
421 654
815 460
238 776
193 772
81 731
753 702
328 954
716 601
635 322
153 579
658 156
288 982
411 439
136 537
678 118
652 723
762 416
395 379
637 613
745 127
724 599
82 324
322 386
131 419
874 924
157 898
86 796
900 781
748 646
767 501
451 472
745 418
528 118
302 623
248 825
811 634
477 823
